NAME : X_30_seed_123_id_12
TYPE : CVRP
DIMENSION : 237
EDGE_WEIGHT_TYPE : EUC_2D
CAPACITY : 18
NODE_COORD_SECTION
1	0	0
2	739	622
3	563	830
4	555	636
5	733	716
6	573	179
7	666	585
8	62	373
9	752	39
10	827	656
11	487	246
12	280	727
13	93	899
14	0	156
15	461	682
16	623	937
17	954	180
18	151	842
19	16	925
20	720	240
21	135	698
22	558	194
23	632	38
24	628	909
25	742	897
26	420	415
27	863	800
28	76	252
29	757	637
30	447	286
31	966	402
32	851	827
33	673	62
34	871	941
35	802	947
36	467	321
37	510	369
38	404	475
39	570	980
40	728	44
41	997	443
42	510	113
43	874	879
44	711	905
45	472	656
46	216	874
47	317	427
48	19	467
49	280	23
50	65	831
51	737	4
52	310	769
53	320	308
54	846	524
55	662	278
56	580	425
57	195	693
58	386	515
59	601	659
60	903	161
61	584	260
62	542	686
63	482	227
64	375	373
65	43	291
66	196	74
67	662	491
68	879	438
69	341	544
70	698	669
71	624	496
72	755	164
73	234	508
74	329	36
75	417	189
76	497	536
77	149	181
78	966	820
79	93	895
80	178	73
81	642	80
82	931	329
83	21	899
84	168	4
85	22	810
86	705	895
87	333	501
88	65	438
89	807	796
90	55	519
91	975	283
92	923	130
93	482	27
94	808	367
95	921	537
96	980	20
97	750	696
98	105	52
99	556	856
100	399	105
101	71	992
102	953	857
103	772	215
104	181	934
105	820	130
106	944	251
107	86	683
108	746	808
109	157	585
110	196	8
111	999	164
112	617	60
113	163	536
114	940	794
115	520	371
116	619	283
117	232	677
118	364	645
119	684	503
120	114	469
121	942	47
122	409	941
123	391	90
124	96	901
125	230	402
126	948	269
127	652	312
128	836	297
129	453	283
130	150	22
131	178	416
132	250	166
133	187	909
134	992	47
135	39	831
136	308	299
137	44	996
138	870	399
139	62	882
140	759	609
141	133	767
142	755	324
143	732	536
144	188	985
145	555	100
146	695	712
147	647	677
148	213	824
149	959	423
150	546	75
151	164	757
152	407	20
153	619	582
154	359	199
155	629	257
156	339	85
157	94	87
158	194	266
159	874	367
160	698	420
161	178	272
162	731	428
163	362	108
164	48	668
165	603	779
166	208	265
167	535	70
168	18	877
169	677	233
170	320	661
171	848	676
172	868	177
173	52	627
174	601	876
175	163	870
176	591	519
177	886	394
178	865	21
179	59	17
180	526	913
181	563	110
182	992	706
183	974	592
184	891	996
185	526	943
186	633	657
187	885	795
188	629	35
189	187	275
190	425	18
191	747	776
192	902	283
193	305	331
194	250	913
195	436	493
196	361	366
197	728	719
198	926	166
199	120	884
200	344	647
201	482	468
202	12	724
203	816	341
204	615	453
205	492	685
206	302	20
207	837	936
208	682	793
209	772	550
210	544	807
211	147	674
212	940	796
213	301	60
214	579	691
215	430	46
216	102	901
217	508	309
218	175	490
219	961	203
220	76	470
221	54	408
222	292	644
223	986	361
224	261	755
225	879	255
226	983	304
227	538	818
228	478	173
229	213	551
230	274	39
231	578	386
232	653	469
233	318	773
234	214	229
235	354	825
236	329	808
237	530	467
DEMAND_SECTION
1	0
2	1
3	1
4	1
5	1
6	1
7	1
8	1
9	1
10	1
11	1
12	1
13	1
14	1
15	1
16	1
17	1
18	1
19	1
20	1
21	1
22	1
23	1
24	1
25	1
26	1
27	1
28	1
29	1
30	1
31	1
32	1
33	1
34	1
35	1
36	1
37	1
38	1
39	1
40	1
41	1
42	1
43	1
44	1
45	1
46	1
47	1
48	1
49	1
50	1
51	1
52	1
53	1
54	1
55	1
56	1
57	1
58	1
59	1
60	1
61	1
62	1
63	1
64	1
65	1
66	1
67	1
68	1
69	1
70	1
71	1
72	1
73	1
74	1
75	1
76	1
77	1
78	1
79	1
80	1
81	1
82	1
83	1
84	1
85	1
86	1
87	1
88	1
89	1
90	1
91	1
92	1
93	1
94	1
95	1
96	1
97	1
98	1
99	1
100	1
101	1
102	1
103	1
104	1
105	1
106	1
107	1
108	1
109	1
110	1
111	1
112	1
113	1
114	1
115	1
116	1
117	1
118	1
119	1
120	1
121	1
122	1
123	1
124	1
125	1
126	1
127	1
128	1
129	1
130	1
131	1
132	1
133	1
134	1
135	1
136	1
137	1
138	1
139	1
140	1
141	1
142	1
143	1
144	1
145	1
146	1
147	1
148	1
149	1
150	1
151	1
152	1
153	1
154	1
155	1
156	1
157	1
158	1
159	1
160	1
161	1
162	1
163	1
164	1
165	1
166	1
167	1
168	1
169	1
170	1
171	1
172	1
173	1
174	1
175	1
176	1
177	1
178	1
179	1
180	1
181	1
182	1
183	1
184	1
185	1
186	1
187	1
188	1
189	1
190	1
191	1
192	1
193	1
194	1
195	1
196	1
197	1
198	1
199	1
200	1
201	1
202	1
203	1
204	1
205	1
206	1
207	1
208	1
209	1
210	1
211	1
212	1
213	1
214	1
215	1
216	1
217	1
218	1
219	1
220	1
221	1
222	1
223	1
224	1
225	1
226	1
227	1
228	1
229	1
230	1
231	1
232	1
233	1
234	1
235	1
236	1
237	1
DEPOT_SECTION
1
-1
EOF
